(set-info :category "industrial")
(set-info :status sat)
(declare-fun x02 () (_ BitVec 8))
(declare-fun x03 () (_ BitVec 8))
(declare-fun x05 () (_ BitVec 8))
(declare-fun x10 () (_ BitVec 8))
(declare-fun x13 () (_ BitVec 8))
(declare-fun x14 () (_ BitVec 8))
(declare-fun x15 () (_ BitVec 8))
(declare-fun x16 () (_ BitVec 8))
(declare-fun x18 () (_ BitVec 8))
(declare-fun x20 () (_ BitVec 8))
(declare-fun x21 () (_ BitVec 8))
(declare-fun x25 () (_ BitVec 8))
(declare-fun x26 () (_ BitVec 8))
(declare-fun x28 () (_ BitVec 8))
(declare-fun x30 () (_ BitVec 8))
(declare-fun x31 () (_ BitVec 8))
(declare-fun x32 () (_ BitVec 8))
(declare-fun x34 () (_ BitVec 8))
(declare-fun x36 () (_ BitVec 8))
(declare-fun x37 () (_ BitVec 8))
(declare-fun x38 () (_ BitVec 8))
(declare-fun x40 () (_ BitVec 8))
(declare-fun x42 () (_ BitVec 8))
(declare-fun x43 () (_ BitVec 8))
(declare-fun x44 () (_ BitVec 8))
(declare-fun x45 () (_ BitVec 8))
(declare-fun x46 () (_ BitVec 8))
(declare-fun x48 () (_ BitVec 8))
(declare-fun x51 () (_ BitVec 8))
(declare-fun x53 () (_ BitVec 8))
(declare-fun x54 () (_ BitVec 8))
(declare-fun x58 () (_ BitVec 8))
(declare-fun x60 () (_ BitVec 8))
(declare-fun x61 () (_ BitVec 8))
(declare-fun x63 () (_ BitVec 8))
(declare-fun x65 () (_ BitVec 8))
(declare-fun x67 () (_ BitVec 8))
(declare-fun x68 () (_ BitVec 8))
(declare-fun x71 () (_ BitVec 8))
(declare-fun x72 () (_ BitVec 8))
(declare-fun x74 () (_ BitVec 8))
(declare-fun x78 () (_ BitVec 8))
(declare-fun x81 () (_ BitVec 8))
(declare-fun x82 () (_ BitVec 8))
(declare-fun x83 () (_ BitVec 8))
(declare-fun x85 () (_ BitVec 8))
(declare-fun x86 () (_ BitVec 8))
(declare-fun x87 () (_ BitVec 8))
(assert (bvult x02 (_ bv9 8)))
(assert (bvult x03 (_ bv9 8)))
(assert (bvult x05 (_ bv9 8)))
(assert (bvult x10 (_ bv9 8)))
(assert (bvult x13 (_ bv9 8)))
(assert (bvult x14 (_ bv9 8)))
(assert (bvult x15 (_ bv9 8)))
(assert (bvult x16 (_ bv9 8)))
(assert (bvult x18 (_ bv9 8)))
(assert (bvult x20 (_ bv9 8)))
(assert (bvult x21 (_ bv9 8)))
(assert (bvult x25 (_ bv9 8)))
(assert (bvult x26 (_ bv9 8)))
(assert (bvult x28 (_ bv9 8)))
(assert (bvult x30 (_ bv9 8)))
(assert (bvult x31 (_ bv9 8)))
(assert (bvult x32 (_ bv9 8)))
(assert (bvult x34 (_ bv9 8)))
(assert (bvult x36 (_ bv9 8)))
(assert (bvult x37 (_ bv9 8)))
(assert (bvult x38 (_ bv9 8)))
(assert (bvult x40 (_ bv9 8)))
(assert (bvult x42 (_ bv9 8)))
(assert (bvult x43 (_ bv9 8)))
(assert (bvult x44 (_ bv9 8)))
(assert (bvult x45 (_ bv9 8)))
(assert (bvult x46 (_ bv9 8)))
(assert (bvult x48 (_ bv9 8)))
(assert (bvult x51 (_ bv9 8)))
(assert (bvult x53 (_ bv9 8)))
(assert (bvult x54 (_ bv9 8)))
(assert (bvult x58 (_ bv9 8)))
(assert (bvult x60 (_ bv9 8)))
(assert (bvult x61 (_ bv9 8)))
(assert (bvult x63 (_ bv9 8)))
(assert (bvult x65 (_ bv9 8)))
(assert (bvult x67 (_ bv9 8)))
(assert (bvult x68 (_ bv9 8)))
(assert (bvult x71 (_ bv9 8)))
(assert (bvult x72 (_ bv9 8)))
(assert (bvult x74 (_ bv9 8)))
(assert (bvult x78 (_ bv9 8)))
(assert (bvult x81 (_ bv9 8)))
(assert (bvult x82 (_ bv9 8)))
(assert (bvult x83 (_ bv9 8)))
(assert (bvult x85 (_ bv9 8)))
(assert (bvult x86 (_ bv9 8)))
(assert (bvult x87 (_ bv9 8)))
(assert (not (= (_ bv2 8) (_ bv8 8))))
(assert (not (= (_ bv2 8) x02)))
(assert (not (= (_ bv2 8) x03)))
(assert (not (= (_ bv2 8) (_ bv1 8))))
(assert (not (= (_ bv2 8) x05)))
(assert (not (= (_ bv2 8) (_ bv3 8))))
(assert (not (= (_ bv2 8) (_ bv7 8))))
(assert (not (= (_ bv2 8) (_ bv4 8))))
(assert (not (= (_ bv8 8) x02)))
(assert (not (= (_ bv8 8) x03)))
(assert (not (= (_ bv8 8) (_ bv1 8))))
(assert (not (= (_ bv8 8) x05)))
(assert (not (= (_ bv8 8) (_ bv3 8))))
(assert (not (= (_ bv8 8) (_ bv7 8))))
(assert (not (= (_ bv8 8) (_ bv4 8))))
(assert (not (= x02 x03)))
(assert (not (= x02 (_ bv1 8))))
(assert (not (= x02 x05)))
(assert (not (= x02 (_ bv3 8))))
(assert (not (= x02 (_ bv7 8))))
(assert (not (= x02 (_ bv4 8))))
(assert (not (= x03 (_ bv1 8))))
(assert (not (= x03 x05)))
(assert (not (= x03 (_ bv3 8))))
(assert (not (= x03 (_ bv7 8))))
(assert (not (= x03 (_ bv4 8))))
(assert (not (= (_ bv1 8) x05)))
(assert (not (= (_ bv1 8) (_ bv3 8))))
(assert (not (= (_ bv1 8) (_ bv7 8))))
(assert (not (= (_ bv1 8) (_ bv4 8))))
(assert (not (= x05 (_ bv3 8))))
(assert (not (= x05 (_ bv7 8))))
(assert (not (= x05 (_ bv4 8))))
(assert (not (= (_ bv3 8) (_ bv7 8))))
(assert (not (= (_ bv3 8) (_ bv4 8))))
(assert (not (= (_ bv7 8) (_ bv4 8))))
(assert (not (= x10 (_ bv9 8))))
(assert (not (= x10 (_ bv7 8))))
(assert (not (= x10 x13)))
(assert (not (= x10 x14)))
(assert (not (= x10 x15)))
(assert (not (= x10 x16)))
(assert (not (= x10 (_ bv5 8))))
(assert (not (= x10 x18)))
(assert (not (= (_ bv9 8) (_ bv7 8))))
(assert (not (= (_ bv9 8) x13)))
(assert (not (= (_ bv9 8) x14)))
(assert (not (= (_ bv9 8) x15)))
(assert (not (= (_ bv9 8) x16)))
(assert (not (= (_ bv9 8) (_ bv5 8))))
(assert (not (= (_ bv9 8) x18)))
(assert (not (= (_ bv7 8) x13)))
(assert (not (= (_ bv7 8) x14)))
(assert (not (= (_ bv7 8) x15)))
(assert (not (= (_ bv7 8) x16)))
(assert (not (= (_ bv7 8) (_ bv5 8))))
(assert (not (= (_ bv7 8) x18)))
(assert (not (= x13 x14)))
(assert (not (= x13 x15)))
(assert (not (= x13 x16)))
(assert (not (= x13 (_ bv5 8))))
(assert (not (= x13 x18)))
(assert (not (= x14 x15)))
(assert (not (= x14 x16)))
(assert (not (= x14 (_ bv5 8))))
(assert (not (= x14 x18)))
(assert (not (= x15 x16)))
(assert (not (= x15 (_ bv5 8))))
(assert (not (= x15 x18)))
(assert (not (= x16 (_ bv5 8))))
(assert (not (= x16 x18)))
(assert (not (= (_ bv5 8) x18)))
(assert (not (= x20 x21)))
(assert (not (= x20 (_ bv5 8))))
(assert (not (= x20 (_ bv2 8))))
(assert (not (= x20 (_ bv8 8))))
(assert (not (= x20 x25)))
(assert (not (= x20 x26)))
(assert (not (= x20 (_ bv1 8))))
(assert (not (= x20 x28)))
(assert (not (= x21 (_ bv5 8))))
(assert (not (= x21 (_ bv2 8))))
(assert (not (= x21 (_ bv8 8))))
(assert (not (= x21 x25)))
(assert (not (= x21 x26)))
(assert (not (= x21 (_ bv1 8))))
(assert (not (= x21 x28)))
(assert (not (= (_ bv5 8) (_ bv2 8))))
(assert (not (= (_ bv5 8) (_ bv8 8))))
(assert (not (= (_ bv5 8) x25)))
(assert (not (= (_ bv5 8) x26)))
(assert (not (= (_ bv5 8) (_ bv1 8))))
(assert (not (= (_ bv5 8) x28)))
(assert (not (= (_ bv2 8) (_ bv8 8))))
(assert (not (= (_ bv2 8) x25)))
(assert (not (= (_ bv2 8) x26)))
(assert (not (= (_ bv2 8) (_ bv1 8))))
(assert (not (= (_ bv2 8) x28)))
(assert (not (= (_ bv8 8) x25)))
(assert (not (= (_ bv8 8) x26)))
(assert (not (= (_ bv8 8) (_ bv1 8))))
(assert (not (= (_ bv8 8) x28)))
(assert (not (= x25 x26)))
(assert (not (= x25 (_ bv1 8))))
(assert (not (= x25 x28)))
(assert (not (= x26 (_ bv1 8))))
(assert (not (= x26 x28)))
(assert (not (= (_ bv1 8) x28)))
(assert (not (= x30 x31)))
(assert (not (= x30 x32)))
(assert (not (= x30 (_ bv4 8))))
(assert (not (= x30 x34)))
(assert (not (= x30 (_ bv9 8))))
(assert (not (= x30 x36)))
(assert (not (= x30 x37)))
(assert (not (= x30 x38)))
(assert (not (= x31 x32)))
(assert (not (= x31 (_ bv4 8))))
(assert (not (= x31 x34)))
(assert (not (= x31 (_ bv9 8))))
(assert (not (= x31 x36)))
(assert (not (= x31 x37)))
(assert (not (= x31 x38)))
(assert (not (= x32 (_ bv4 8))))
(assert (not (= x32 x34)))
(assert (not (= x32 (_ bv9 8))))
(assert (not (= x32 x36)))
(assert (not (= x32 x37)))
(assert (not (= x32 x38)))
(assert (not (= (_ bv4 8) x34)))
(assert (not (= (_ bv4 8) (_ bv9 8))))
(assert (not (= (_ bv4 8) x36)))
(assert (not (= (_ bv4 8) x37)))
(assert (not (= (_ bv4 8) x38)))
(assert (not (= x34 (_ bv9 8))))
(assert (not (= x34 x36)))
(assert (not (= x34 x37)))
(assert (not (= x34 x38)))
(assert (not (= (_ bv9 8) x36)))
(assert (not (= (_ bv9 8) x37)))
(assert (not (= (_ bv9 8) x38)))
(assert (not (= x36 x37)))
(assert (not (= x36 x38)))
(assert (not (= x37 x38)))
(assert (not (= x40 (_ bv1 8))))
(assert (not (= x40 x42)))
(assert (not (= x40 x43)))
(assert (not (= x40 x44)))
(assert (not (= x40 x45)))
(assert (not (= x40 x46)))
(assert (not (= x40 (_ bv3 8))))
(assert (not (= x40 x48)))
(assert (not (= (_ bv1 8) x42)))
(assert (not (= (_ bv1 8) x43)))
(assert (not (= (_ bv1 8) x44)))
(assert (not (= (_ bv1 8) x45)))
(assert (not (= (_ bv1 8) x46)))
(assert (not (= (_ bv1 8) (_ bv3 8))))
(assert (not (= (_ bv1 8) x48)))
(assert (not (= x42 x43)))
(assert (not (= x42 x44)))
(assert (not (= x42 x45)))
(assert (not (= x42 x46)))
(assert (not (= x42 (_ bv3 8))))
(assert (not (= x42 x48)))
(assert (not (= x43 x44)))
(assert (not (= x43 x45)))
(assert (not (= x43 x46)))
(assert (not (= x43 (_ bv3 8))))
(assert (not (= x43 x48)))
(assert (not (= x44 x45)))
(assert (not (= x44 x46)))
(assert (not (= x44 (_ bv3 8))))
(assert (not (= x44 x48)))
(assert (not (= x45 x46)))
(assert (not (= x45 (_ bv3 8))))
(assert (not (= x45 x48)))
(assert (not (= x46 (_ bv3 8))))
(assert (not (= x46 x48)))
(assert (not (= (_ bv3 8) x48)))
(assert (not (= (_ bv3 8) x51)))
(assert (not (= (_ bv3 8) (_ bv9 8))))
(assert (not (= (_ bv3 8) x53)))
(assert (not (= (_ bv3 8) x54)))
(assert (not (= (_ bv3 8) (_ bv6 8))))
(assert (not (= (_ bv3 8) (_ bv2 8))))
(assert (not (= (_ bv3 8) (_ bv4 8))))
(assert (not (= (_ bv3 8) x58)))
(assert (not (= x51 (_ bv9 8))))
(assert (not (= x51 x53)))
(assert (not (= x51 x54)))
(assert (not (= x51 (_ bv6 8))))
(assert (not (= x51 (_ bv2 8))))
(assert (not (= x51 (_ bv4 8))))
(assert (not (= x51 x58)))
(assert (not (= (_ bv9 8) x53)))
(assert (not (= (_ bv9 8) x54)))
(assert (not (= (_ bv9 8) (_ bv6 8))))
(assert (not (= (_ bv9 8) (_ bv2 8))))
(assert (not (= (_ bv9 8) (_ bv4 8))))
(assert (not (= (_ bv9 8) x58)))
(assert (not (= x53 x54)))
(assert (not (= x53 (_ bv6 8))))
(assert (not (= x53 (_ bv2 8))))
(assert (not (= x53 (_ bv4 8))))
(assert (not (= x53 x58)))
(assert (not (= x54 (_ bv6 8))))
(assert (not (= x54 (_ bv2 8))))
(assert (not (= x54 (_ bv4 8))))
(assert (not (= x54 x58)))
(assert (not (= (_ bv6 8) (_ bv2 8))))
(assert (not (= (_ bv6 8) (_ bv4 8))))
(assert (not (= (_ bv6 8) x58)))
(assert (not (= (_ bv2 8) (_ bv4 8))))
(assert (not (= (_ bv2 8) x58)))
(assert (not (= (_ bv4 8) x58)))
(assert (not (= x60 x61)))
(assert (not (= x60 (_ bv3 8))))
(assert (not (= x60 x63)))
(assert (not (= x60 (_ bv6 8))))
(assert (not (= x60 x65)))
(assert (not (= x60 (_ bv1 8))))
(assert (not (= x60 x67)))
(assert (not (= x60 x68)))
(assert (not (= x61 (_ bv3 8))))
(assert (not (= x61 x63)))
(assert (not (= x61 (_ bv6 8))))
(assert (not (= x61 x65)))
(assert (not (= x61 (_ bv1 8))))
(assert (not (= x61 x67)))
(assert (not (= x61 x68)))
(assert (not (= (_ bv3 8) x63)))
(assert (not (= (_ bv3 8) (_ bv6 8))))
(assert (not (= (_ bv3 8) x65)))
(assert (not (= (_ bv3 8) (_ bv1 8))))
(assert (not (= (_ bv3 8) x67)))
(assert (not (= (_ bv3 8) x68)))
(assert (not (= x63 (_ bv6 8))))
(assert (not (= x63 x65)))
(assert (not (= x63 (_ bv1 8))))
(assert (not (= x63 x67)))
(assert (not (= x63 x68)))
(assert (not (= (_ bv6 8) x65)))
(assert (not (= (_ bv6 8) (_ bv1 8))))
(assert (not (= (_ bv6 8) x67)))
(assert (not (= (_ bv6 8) x68)))
(assert (not (= x65 (_ bv1 8))))
(assert (not (= x65 x67)))
(assert (not (= x65 x68)))
(assert (not (= (_ bv1 8) x67)))
(assert (not (= (_ bv1 8) x68)))
(assert (not (= x67 x68)))
(assert (not (= (_ bv5 8) x71)))
(assert (not (= (_ bv5 8) x72)))
(assert (not (= (_ bv5 8) (_ bv8 8))))
(assert (not (= (_ bv5 8) x74)))
(assert (not (= (_ bv5 8) (_ bv4 8))))
(assert (not (= (_ bv5 8) (_ bv6 8))))
(assert (not (= (_ bv5 8) (_ bv2 8))))
(assert (not (= (_ bv5 8) x78)))
(assert (not (= x71 x72)))
(assert (not (= x71 (_ bv8 8))))
(assert (not (= x71 x74)))
(assert (not (= x71 (_ bv4 8))))
(assert (not (= x71 (_ bv6 8))))
(assert (not (= x71 (_ bv2 8))))
(assert (not (= x71 x78)))
(assert (not (= x72 (_ bv8 8))))
(assert (not (= x72 x74)))
(assert (not (= x72 (_ bv4 8))))
(assert (not (= x72 (_ bv6 8))))
(assert (not (= x72 (_ bv2 8))))
(assert (not (= x72 x78)))
(assert (not (= (_ bv8 8) x74)))
(assert (not (= (_ bv8 8) (_ bv4 8))))
(assert (not (= (_ bv8 8) (_ bv6 8))))
(assert (not (= (_ bv8 8) (_ bv2 8))))
(assert (not (= (_ bv8 8) x78)))
(assert (not (= x74 (_ bv4 8))))
(assert (not (= x74 (_ bv6 8))))
(assert (not (= x74 (_ bv2 8))))
(assert (not (= x74 x78)))
(assert (not (= (_ bv4 8) (_ bv6 8))))
(assert (not (= (_ bv4 8) (_ bv2 8))))
(assert (not (= (_ bv4 8) x78)))
(assert (not (= (_ bv6 8) (_ bv2 8))))
(assert (not (= (_ bv6 8) x78)))
(assert (not (= (_ bv2 8) x78)))
(assert (not (= (_ bv8 8) x81)))
(assert (not (= (_ bv8 8) x82)))
(assert (not (= (_ bv8 8) x83)))
(assert (not (= (_ bv8 8) (_ bv5 8))))
(assert (not (= (_ bv8 8) x85)))
(assert (not (= (_ bv8 8) x86)))
(assert (not (= (_ bv8 8) x87)))
(assert (not (= (_ bv8 8) (_ bv7 8))))
(assert (not (= x81 x82)))
(assert (not (= x81 x83)))
(assert (not (= x81 (_ bv5 8))))
(assert (not (= x81 x85)))
(assert (not (= x81 x86)))
(assert (not (= x81 x87)))
(assert (not (= x81 (_ bv7 8))))
(assert (not (= x82 x83)))
(assert (not (= x82 (_ bv5 8))))
(assert (not (= x82 x85)))
(assert (not (= x82 x86)))
(assert (not (= x82 x87)))
(assert (not (= x82 (_ bv7 8))))
(assert (not (= x83 (_ bv5 8))))
(assert (not (= x83 x85)))
(assert (not (= x83 x86)))
(assert (not (= x83 x87)))
(assert (not (= x83 (_ bv7 8))))
(assert (not (= (_ bv5 8) x85)))
(assert (not (= (_ bv5 8) x86)))
(assert (not (= (_ bv5 8) x87)))
(assert (not (= (_ bv5 8) (_ bv7 8))))
(assert (not (= x85 x86)))
(assert (not (= x85 x87)))
(assert (not (= x85 (_ bv7 8))))
(assert (not (= x86 x87)))
(assert (not (= x86 (_ bv7 8))))
(assert (not (= x87 (_ bv7 8))))
(assert (not (= (_ bv2 8) x10)))
(assert (not (= (_ bv2 8) x20)))
(assert (not (= (_ bv2 8) x30)))
(assert (not (= (_ bv2 8) x40)))
(assert (not (= (_ bv2 8) (_ bv3 8))))
(assert (not (= (_ bv2 8) x60)))
(assert (not (= (_ bv2 8) (_ bv5 8))))
(assert (not (= (_ bv2 8) (_ bv8 8))))
(assert (not (= x10 x20)))
(assert (not (= x10 x30)))
(assert (not (= x10 x40)))
(assert (not (= x10 (_ bv3 8))))
(assert (not (= x10 x60)))
(assert (not (= x10 (_ bv5 8))))
(assert (not (= x10 (_ bv8 8))))
(assert (not (= x20 x30)))
(assert (not (= x20 x40)))
(assert (not (= x20 (_ bv3 8))))
(assert (not (= x20 x60)))
(assert (not (= x20 (_ bv5 8))))
(assert (not (= x20 (_ bv8 8))))
(assert (not (= x30 x40)))
(assert (not (= x30 (_ bv3 8))))
(assert (not (= x30 x60)))
(assert (not (= x30 (_ bv5 8))))
(assert (not (= x30 (_ bv8 8))))
(assert (not (= x40 (_ bv3 8))))
(assert (not (= x40 x60)))
(assert (not (= x40 (_ bv5 8))))
(assert (not (= x40 (_ bv8 8))))
(assert (not (= (_ bv3 8) x60)))
(assert (not (= (_ bv3 8) (_ bv5 8))))
(assert (not (= (_ bv3 8) (_ bv8 8))))
(assert (not (= x60 (_ bv5 8))))
(assert (not (= x60 (_ bv8 8))))
(assert (not (= (_ bv5 8) (_ bv8 8))))
(assert (not (= (_ bv8 8) (_ bv9 8))))
(assert (not (= (_ bv8 8) x21)))
(assert (not (= (_ bv8 8) x31)))
(assert (not (= (_ bv8 8) (_ bv1 8))))
(assert (not (= (_ bv8 8) x51)))
(assert (not (= (_ bv8 8) x61)))
(assert (not (= (_ bv8 8) x71)))
(assert (not (= (_ bv8 8) x81)))
(assert (not (= (_ bv9 8) x21)))
(assert (not (= (_ bv9 8) x31)))
(assert (not (= (_ bv9 8) (_ bv1 8))))
(assert (not (= (_ bv9 8) x51)))
(assert (not (= (_ bv9 8) x61)))
(assert (not (= (_ bv9 8) x71)))
(assert (not (= (_ bv9 8) x81)))
(assert (not (= x21 x31)))
(assert (not (= x21 (_ bv1 8))))
(assert (not (= x21 x51)))
(assert (not (= x21 x61)))
(assert (not (= x21 x71)))
(assert (not (= x21 x81)))
(assert (not (= x31 (_ bv1 8))))
(assert (not (= x31 x51)))
(assert (not (= x31 x61)))
(assert (not (= x31 x71)))
(assert (not (= x31 x81)))
(assert (not (= (_ bv1 8) x51)))
(assert (not (= (_ bv1 8) x61)))
(assert (not (= (_ bv1 8) x71)))
(assert (not (= (_ bv1 8) x81)))
(assert (not (= x51 x61)))
(assert (not (= x51 x71)))
(assert (not (= x51 x81)))
(assert (not (= x61 x71)))
(assert (not (= x61 x81)))
(assert (not (= x71 x81)))
(assert (not (= x02 (_ bv7 8))))
(assert (not (= x02 (_ bv5 8))))
(assert (not (= x02 x32)))
(assert (not (= x02 x42)))
(assert (not (= x02 (_ bv9 8))))
(assert (not (= x02 (_ bv3 8))))
(assert (not (= x02 x72)))
(assert (not (= x02 x82)))
(assert (not (= (_ bv7 8) (_ bv5 8))))
(assert (not (= (_ bv7 8) x32)))
(assert (not (= (_ bv7 8) x42)))
(assert (not (= (_ bv7 8) (_ bv9 8))))
(assert (not (= (_ bv7 8) (_ bv3 8))))
(assert (not (= (_ bv7 8) x72)))
(assert (not (= (_ bv7 8) x82)))
(assert (not (= (_ bv5 8) x32)))
(assert (not (= (_ bv5 8) x42)))
(assert (not (= (_ bv5 8) (_ bv9 8))))
(assert (not (= (_ bv5 8) (_ bv3 8))))
(assert (not (= (_ bv5 8) x72)))
(assert (not (= (_ bv5 8) x82)))
(assert (not (= x32 x42)))
(assert (not (= x32 (_ bv9 8))))
(assert (not (= x32 (_ bv3 8))))
(assert (not (= x32 x72)))
(assert (not (= x32 x82)))
(assert (not (= x42 (_ bv9 8))))
(assert (not (= x42 (_ bv3 8))))
(assert (not (= x42 x72)))
(assert (not (= x42 x82)))
(assert (not (= (_ bv9 8) (_ bv3 8))))
(assert (not (= (_ bv9 8) x72)))
(assert (not (= (_ bv9 8) x82)))
(assert (not (= (_ bv3 8) x72)))
(assert (not (= (_ bv3 8) x82)))
(assert (not (= x72 x82)))
(assert (not (= x03 x13)))
(assert (not (= x03 (_ bv2 8))))
(assert (not (= x03 (_ bv4 8))))
(assert (not (= x03 x43)))
(assert (not (= x03 x53)))
(assert (not (= x03 x63)))
(assert (not (= x03 (_ bv8 8))))
(assert (not (= x03 x83)))
(assert (not (= x13 (_ bv2 8))))
(assert (not (= x13 (_ bv4 8))))
(assert (not (= x13 x43)))
(assert (not (= x13 x53)))
(assert (not (= x13 x63)))
(assert (not (= x13 (_ bv8 8))))
(assert (not (= x13 x83)))
(assert (not (= (_ bv2 8) (_ bv4 8))))
(assert (not (= (_ bv2 8) x43)))
(assert (not (= (_ bv2 8) x53)))
(assert (not (= (_ bv2 8) x63)))
(assert (not (= (_ bv2 8) (_ bv8 8))))
(assert (not (= (_ bv2 8) x83)))
(assert (not (= (_ bv4 8) x43)))
(assert (not (= (_ bv4 8) x53)))
(assert (not (= (_ bv4 8) x63)))
(assert (not (= (_ bv4 8) (_ bv8 8))))
(assert (not (= (_ bv4 8) x83)))
(assert (not (= x43 x53)))
(assert (not (= x43 x63)))
(assert (not (= x43 (_ bv8 8))))
(assert (not (= x43 x83)))
(assert (not (= x53 x63)))
(assert (not (= x53 (_ bv8 8))))
(assert (not (= x53 x83)))
(assert (not (= x63 (_ bv8 8))))
(assert (not (= x63 x83)))
(assert (not (= (_ bv8 8) x83)))
(assert (not (= (_ bv1 8) x14)))
(assert (not (= (_ bv1 8) (_ bv8 8))))
(assert (not (= (_ bv1 8) x34)))
(assert (not (= (_ bv1 8) x44)))
(assert (not (= (_ bv1 8) x54)))
(assert (not (= (_ bv1 8) (_ bv6 8))))
(assert (not (= (_ bv1 8) x74)))
(assert (not (= (_ bv1 8) (_ bv5 8))))
(assert (not (= x14 (_ bv8 8))))
(assert (not (= x14 x34)))
(assert (not (= x14 x44)))
(assert (not (= x14 x54)))
(assert (not (= x14 (_ bv6 8))))
(assert (not (= x14 x74)))
(assert (not (= x14 (_ bv5 8))))
(assert (not (= (_ bv8 8) x34)))
(assert (not (= (_ bv8 8) x44)))
(assert (not (= (_ bv8 8) x54)))
(assert (not (= (_ bv8 8) (_ bv6 8))))
(assert (not (= (_ bv8 8) x74)))
(assert (not (= (_ bv8 8) (_ bv5 8))))
(assert (not (= x34 x44)))
(assert (not (= x34 x54)))
(assert (not (= x34 (_ bv6 8))))
(assert (not (= x34 x74)))
(assert (not (= x34 (_ bv5 8))))
(assert (not (= x44 x54)))
(assert (not (= x44 (_ bv6 8))))
(assert (not (= x44 x74)))
(assert (not (= x44 (_ bv5 8))))
(assert (not (= x54 (_ bv6 8))))
(assert (not (= x54 x74)))
(assert (not (= x54 (_ bv5 8))))
(assert (not (= (_ bv6 8) x74)))
(assert (not (= (_ bv6 8) (_ bv5 8))))
(assert (not (= x74 (_ bv5 8))))
(assert (not (= x05 x15)))
(assert (not (= x05 x25)))
(assert (not (= x05 (_ bv9 8))))
(assert (not (= x05 x45)))
(assert (not (= x05 (_ bv6 8))))
(assert (not (= x05 x65)))
(assert (not (= x05 (_ bv4 8))))
(assert (not (= x05 x85)))
(assert (not (= x15 x25)))
(assert (not (= x15 (_ bv9 8))))
(assert (not (= x15 x45)))
(assert (not (= x15 (_ bv6 8))))
(assert (not (= x15 x65)))
(assert (not (= x15 (_ bv4 8))))
(assert (not (= x15 x85)))
(assert (not (= x25 (_ bv9 8))))
(assert (not (= x25 x45)))
(assert (not (= x25 (_ bv6 8))))
(assert (not (= x25 x65)))
(assert (not (= x25 (_ bv4 8))))
(assert (not (= x25 x85)))
(assert (not (= (_ bv9 8) x45)))
(assert (not (= (_ bv9 8) (_ bv6 8))))
(assert (not (= (_ bv9 8) x65)))
(assert (not (= (_ bv9 8) (_ bv4 8))))
(assert (not (= (_ bv9 8) x85)))
(assert (not (= x45 (_ bv6 8))))
(assert (not (= x45 x65)))
(assert (not (= x45 (_ bv4 8))))
(assert (not (= x45 x85)))
(assert (not (= (_ bv6 8) x65)))
(assert (not (= (_ bv6 8) (_ bv4 8))))
(assert (not (= (_ bv6 8) x85)))
(assert (not (= x65 (_ bv4 8))))
(assert (not (= x65 x85)))
(assert (not (= (_ bv4 8) x85)))
(assert (not (= (_ bv3 8) x16)))
(assert (not (= (_ bv3 8) x26)))
(assert (not (= (_ bv3 8) x36)))
(assert (not (= (_ bv3 8) x46)))
(assert (not (= (_ bv3 8) (_ bv2 8))))
(assert (not (= (_ bv3 8) (_ bv1 8))))
(assert (not (= (_ bv3 8) (_ bv6 8))))
(assert (not (= (_ bv3 8) x86)))
(assert (not (= x16 x26)))
(assert (not (= x16 x36)))
(assert (not (= x16 x46)))
(assert (not (= x16 (_ bv2 8))))
(assert (not (= x16 (_ bv1 8))))
(assert (not (= x16 (_ bv6 8))))
(assert (not (= x16 x86)))
(assert (not (= x26 x36)))
(assert (not (= x26 x46)))
(assert (not (= x26 (_ bv2 8))))
(assert (not (= x26 (_ bv1 8))))
(assert (not (= x26 (_ bv6 8))))
(assert (not (= x26 x86)))
(assert (not (= x36 x46)))
(assert (not (= x36 (_ bv2 8))))
(assert (not (= x36 (_ bv1 8))))
(assert (not (= x36 (_ bv6 8))))
(assert (not (= x36 x86)))
(assert (not (= x46 (_ bv2 8))))
(assert (not (= x46 (_ bv1 8))))
(assert (not (= x46 (_ bv6 8))))
(assert (not (= x46 x86)))
(assert (not (= (_ bv2 8) (_ bv1 8))))
(assert (not (= (_ bv2 8) (_ bv6 8))))
(assert (not (= (_ bv2 8) x86)))
(assert (not (= (_ bv1 8) (_ bv6 8))))
(assert (not (= (_ bv1 8) x86)))
(assert (not (= (_ bv6 8) x86)))
(assert (not (= (_ bv7 8) (_ bv5 8))))
(assert (not (= (_ bv7 8) (_ bv1 8))))
(assert (not (= (_ bv7 8) x37)))
(assert (not (= (_ bv7 8) (_ bv3 8))))
(assert (not (= (_ bv7 8) (_ bv4 8))))
(assert (not (= (_ bv7 8) x67)))
(assert (not (= (_ bv7 8) (_ bv2 8))))
(assert (not (= (_ bv7 8) x87)))
(assert (not (= (_ bv5 8) (_ bv1 8))))
(assert (not (= (_ bv5 8) x37)))
(assert (not (= (_ bv5 8) (_ bv3 8))))
(assert (not (= (_ bv5 8) (_ bv4 8))))
(assert (not (= (_ bv5 8) x67)))
(assert (not (= (_ bv5 8) (_ bv2 8))))
(assert (not (= (_ bv5 8) x87)))
(assert (not (= (_ bv1 8) x37)))
(assert (not (= (_ bv1 8) (_ bv3 8))))
(assert (not (= (_ bv1 8) (_ bv4 8))))
(assert (not (= (_ bv1 8) x67)))
(assert (not (= (_ bv1 8) (_ bv2 8))))
(assert (not (= (_ bv1 8) x87)))
(assert (not (= x37 (_ bv3 8))))
(assert (not (= x37 (_ bv4 8))))
(assert (not (= x37 x67)))
(assert (not (= x37 (_ bv2 8))))
(assert (not (= x37 x87)))
(assert (not (= (_ bv3 8) (_ bv4 8))))
(assert (not (= (_ bv3 8) x67)))
(assert (not (= (_ bv3 8) (_ bv2 8))))
(assert (not (= (_ bv3 8) x87)))
(assert (not (= (_ bv4 8) x67)))
(assert (not (= (_ bv4 8) (_ bv2 8))))
(assert (not (= (_ bv4 8) x87)))
(assert (not (= x67 (_ bv2 8))))
(assert (not (= x67 x87)))
(assert (not (= (_ bv2 8) x87)))
(assert (not (= (_ bv4 8) x18)))
(assert (not (= (_ bv4 8) x28)))
(assert (not (= (_ bv4 8) x38)))
(assert (not (= (_ bv4 8) x48)))
(assert (not (= (_ bv4 8) x58)))
(assert (not (= (_ bv4 8) x68)))
(assert (not (= (_ bv4 8) x78)))
(assert (not (= (_ bv4 8) (_ bv7 8))))
(assert (not (= x18 x28)))
(assert (not (= x18 x38)))
(assert (not (= x18 x48)))
(assert (not (= x18 x58)))
(assert (not (= x18 x68)))
(assert (not (= x18 x78)))
(assert (not (= x18 (_ bv7 8))))
(assert (not (= x28 x38)))
(assert (not (= x28 x48)))
(assert (not (= x28 x58)))
(assert (not (= x28 x68)))
(assert (not (= x28 x78)))
(assert (not (= x28 (_ bv7 8))))
(assert (not (= x38 x48)))
(assert (not (= x38 x58)))
(assert (not (= x38 x68)))
(assert (not (= x38 x78)))
(assert (not (= x38 (_ bv7 8))))
(assert (not (= x48 x58)))
(assert (not (= x48 x68)))
(assert (not (= x48 x78)))
(assert (not (= x48 (_ bv7 8))))
(assert (not (= x58 x68)))
(assert (not (= x58 x78)))
(assert (not (= x58 (_ bv7 8))))
(assert (not (= x68 x78)))
(assert (not (= x68 (_ bv7 8))))
(assert (not (= x78 (_ bv7 8))))
(assert (not (= (_ bv2 8) (_ bv8 8))))
(assert (not (= (_ bv2 8) x02)))
(assert (not (= (_ bv2 8) x10)))
(assert (not (= (_ bv2 8) (_ bv9 8))))
(assert (not (= (_ bv2 8) (_ bv7 8))))
(assert (not (= (_ bv2 8) x20)))
(assert (not (= (_ bv2 8) x21)))
(assert (not (= (_ bv2 8) (_ bv5 8))))
(assert (not (= (_ bv8 8) x02)))
(assert (not (= (_ bv8 8) x10)))
(assert (not (= (_ bv8 8) (_ bv9 8))))
(assert (not (= (_ bv8 8) (_ bv7 8))))
(assert (not (= (_ bv8 8) x20)))
(assert (not (= (_ bv8 8) x21)))
(assert (not (= (_ bv8 8) (_ bv5 8))))
(assert (not (= x02 x10)))
(assert (not (= x02 (_ bv9 8))))
(assert (not (= x02 (_ bv7 8))))
(assert (not (= x02 x20)))
(assert (not (= x02 x21)))
(assert (not (= x02 (_ bv5 8))))
(assert (not (= x10 (_ bv9 8))))
(assert (not (= x10 (_ bv7 8))))
(assert (not (= x10 x20)))
(assert (not (= x10 x21)))
(assert (not (= x10 (_ bv5 8))))
(assert (not (= (_ bv9 8) (_ bv7 8))))
(assert (not (= (_ bv9 8) x20)))
(assert (not (= (_ bv9 8) x21)))
(assert (not (= (_ bv9 8) (_ bv5 8))))
(assert (not (= (_ bv7 8) x20)))
(assert (not (= (_ bv7 8) x21)))
(assert (not (= (_ bv7 8) (_ bv5 8))))
(assert (not (= x20 x21)))
(assert (not (= x20 (_ bv5 8))))
(assert (not (= x21 (_ bv5 8))))
(assert (not (= x03 (_ bv1 8))))
(assert (not (= x03 x05)))
(assert (not (= x03 x13)))
(assert (not (= x03 x14)))
(assert (not (= x03 x15)))
(assert (not (= x03 (_ bv2 8))))
(assert (not (= x03 (_ bv8 8))))
(assert (not (= x03 x25)))
(assert (not (= (_ bv1 8) x05)))
(assert (not (= (_ bv1 8) x13)))
(assert (not (= (_ bv1 8) x14)))
(assert (not (= (_ bv1 8) x15)))
(assert (not (= (_ bv1 8) (_ bv2 8))))
(assert (not (= (_ bv1 8) (_ bv8 8))))
(assert (not (= (_ bv1 8) x25)))
(assert (not (= x05 x13)))
(assert (not (= x05 x14)))
(assert (not (= x05 x15)))
(assert (not (= x05 (_ bv2 8))))
(assert (not (= x05 (_ bv8 8))))
(assert (not (= x05 x25)))
(assert (not (= x13 x14)))
(assert (not (= x13 x15)))
(assert (not (= x13 (_ bv2 8))))
(assert (not (= x13 (_ bv8 8))))
(assert (not (= x13 x25)))
(assert (not (= x14 x15)))
(assert (not (= x14 (_ bv2 8))))
(assert (not (= x14 (_ bv8 8))))
(assert (not (= x14 x25)))
(assert (not (= x15 (_ bv2 8))))
(assert (not (= x15 (_ bv8 8))))
(assert (not (= x15 x25)))
(assert (not (= (_ bv2 8) (_ bv8 8))))
(assert (not (= (_ bv2 8) x25)))
(assert (not (= (_ bv8 8) x25)))
(assert (not (= (_ bv3 8) (_ bv7 8))))
(assert (not (= (_ bv3 8) (_ bv4 8))))
(assert (not (= (_ bv3 8) x16)))
(assert (not (= (_ bv3 8) (_ bv5 8))))
(assert (not (= (_ bv3 8) x18)))
(assert (not (= (_ bv3 8) x26)))
(assert (not (= (_ bv3 8) (_ bv1 8))))
(assert (not (= (_ bv3 8) x28)))
(assert (not (= (_ bv7 8) (_ bv4 8))))
(assert (not (= (_ bv7 8) x16)))
(assert (not (= (_ bv7 8) (_ bv5 8))))
(assert (not (= (_ bv7 8) x18)))
(assert (not (= (_ bv7 8) x26)))
(assert (not (= (_ bv7 8) (_ bv1 8))))
(assert (not (= (_ bv7 8) x28)))
(assert (not (= (_ bv4 8) x16)))
(assert (not (= (_ bv4 8) (_ bv5 8))))
(assert (not (= (_ bv4 8) x18)))
(assert (not (= (_ bv4 8) x26)))
(assert (not (= (_ bv4 8) (_ bv1 8))))
(assert (not (= (_ bv4 8) x28)))
(assert (not (= x16 (_ bv5 8))))
(assert (not (= x16 x18)))
(assert (not (= x16 x26)))
(assert (not (= x16 (_ bv1 8))))
(assert (not (= x16 x28)))
(assert (not (= (_ bv5 8) x18)))
(assert (not (= (_ bv5 8) x26)))
(assert (not (= (_ bv5 8) (_ bv1 8))))
(assert (not (= (_ bv5 8) x28)))
(assert (not (= x18 x26)))
(assert (not (= x18 (_ bv1 8))))
(assert (not (= x18 x28)))
(assert (not (= x26 (_ bv1 8))))
(assert (not (= x26 x28)))
(assert (not (= (_ bv1 8) x28)))
(assert (not (= x30 x31)))
(assert (not (= x30 x32)))
(assert (not (= x30 x40)))
(assert (not (= x30 (_ bv1 8))))
(assert (not (= x30 x42)))
(assert (not (= x30 (_ bv3 8))))
(assert (not (= x30 x51)))
(assert (not (= x30 (_ bv9 8))))
(assert (not (= x31 x32)))
(assert (not (= x31 x40)))
(assert (not (= x31 (_ bv1 8))))
(assert (not (= x31 x42)))
(assert (not (= x31 (_ bv3 8))))
(assert (not (= x31 x51)))
(assert (not (= x31 (_ bv9 8))))
(assert (not (= x32 x40)))
(assert (not (= x32 (_ bv1 8))))
(assert (not (= x32 x42)))
(assert (not (= x32 (_ bv3 8))))
(assert (not (= x32 x51)))
(assert (not (= x32 (_ bv9 8))))
(assert (not (= x40 (_ bv1 8))))
(assert (not (= x40 x42)))
(assert (not (= x40 (_ bv3 8))))
(assert (not (= x40 x51)))
(assert (not (= x40 (_ bv9 8))))
(assert (not (= (_ bv1 8) x42)))
(assert (not (= (_ bv1 8) (_ bv3 8))))
(assert (not (= (_ bv1 8) x51)))
(assert (not (= (_ bv1 8) (_ bv9 8))))
(assert (not (= x42 (_ bv3 8))))
(assert (not (= x42 x51)))
(assert (not (= x42 (_ bv9 8))))
(assert (not (= (_ bv3 8) x51)))
(assert (not (= (_ bv3 8) (_ bv9 8))))
(assert (not (= x51 (_ bv9 8))))
(assert (not (= (_ bv4 8) x34)))
(assert (not (= (_ bv4 8) (_ bv9 8))))
(assert (not (= (_ bv4 8) x43)))
(assert (not (= (_ bv4 8) x44)))
(assert (not (= (_ bv4 8) x45)))
(assert (not (= (_ bv4 8) x53)))
(assert (not (= (_ bv4 8) x54)))
(assert (not (= (_ bv4 8) (_ bv6 8))))
(assert (not (= x34 (_ bv9 8))))
(assert (not (= x34 x43)))
(assert (not (= x34 x44)))
(assert (not (= x34 x45)))
(assert (not (= x34 x53)))
(assert (not (= x34 x54)))
(assert (not (= x34 (_ bv6 8))))
(assert (not (= (_ bv9 8) x43)))
(assert (not (= (_ bv9 8) x44)))
(assert (not (= (_ bv9 8) x45)))
(assert (not (= (_ bv9 8) x53)))
(assert (not (= (_ bv9 8) x54)))
(assert (not (= (_ bv9 8) (_ bv6 8))))
(assert (not (= x43 x44)))
(assert (not (= x43 x45)))
(assert (not (= x43 x53)))
(assert (not (= x43 x54)))
(assert (not (= x43 (_ bv6 8))))
(assert (not (= x44 x45)))
(assert (not (= x44 x53)))
(assert (not (= x44 x54)))
(assert (not (= x44 (_ bv6 8))))
(assert (not (= x45 x53)))
(assert (not (= x45 x54)))
(assert (not (= x45 (_ bv6 8))))
(assert (not (= x53 x54)))
(assert (not (= x53 (_ bv6 8))))
(assert (not (= x54 (_ bv6 8))))
(assert (not (= x36 x37)))
(assert (not (= x36 x38)))
(assert (not (= x36 x46)))
(assert (not (= x36 (_ bv3 8))))
(assert (not (= x36 x48)))
(assert (not (= x36 (_ bv2 8))))
(assert (not (= x36 (_ bv4 8))))
(assert (not (= x36 x58)))
(assert (not (= x37 x38)))
(assert (not (= x37 x46)))
(assert (not (= x37 (_ bv3 8))))
(assert (not (= x37 x48)))
(assert (not (= x37 (_ bv2 8))))
(assert (not (= x37 (_ bv4 8))))
(assert (not (= x37 x58)))
(assert (not (= x38 x46)))
(assert (not (= x38 (_ bv3 8))))
(assert (not (= x38 x48)))
(assert (not (= x38 (_ bv2 8))))
(assert (not (= x38 (_ bv4 8))))
(assert (not (= x38 x58)))
(assert (not (= x46 (_ bv3 8))))
(assert (not (= x46 x48)))
(assert (not (= x46 (_ bv2 8))))
(assert (not (= x46 (_ bv4 8))))
(assert (not (= x46 x58)))
(assert (not (= (_ bv3 8) x48)))
(assert (not (= (_ bv3 8) (_ bv2 8))))
(assert (not (= (_ bv3 8) (_ bv4 8))))
(assert (not (= (_ bv3 8) x58)))
(assert (not (= x48 (_ bv2 8))))
(assert (not (= x48 (_ bv4 8))))
(assert (not (= x48 x58)))
(assert (not (= (_ bv2 8) (_ bv4 8))))
(assert (not (= (_ bv2 8) x58)))
(assert (not (= (_ bv4 8) x58)))
(assert (not (= x60 x61)))
(assert (not (= x60 (_ bv3 8))))
(assert (not (= x60 (_ bv5 8))))
(assert (not (= x60 x71)))
(assert (not (= x60 x72)))
(assert (not (= x60 (_ bv8 8))))
(assert (not (= x60 x81)))
(assert (not (= x60 x82)))
(assert (not (= x61 (_ bv3 8))))
(assert (not (= x61 (_ bv5 8))))
(assert (not (= x61 x71)))
(assert (not (= x61 x72)))
(assert (not (= x61 (_ bv8 8))))
(assert (not (= x61 x81)))
(assert (not (= x61 x82)))
(assert (not (= (_ bv3 8) (_ bv5 8))))
(assert (not (= (_ bv3 8) x71)))
(assert (not (= (_ bv3 8) x72)))
(assert (not (= (_ bv3 8) (_ bv8 8))))
(assert (not (= (_ bv3 8) x81)))
(assert (not (= (_ bv3 8) x82)))
(assert (not (= (_ bv5 8) x71)))
(assert (not (= (_ bv5 8) x72)))
(assert (not (= (_ bv5 8) (_ bv8 8))))
(assert (not (= (_ bv5 8) x81)))
(assert (not (= (_ bv5 8) x82)))
(assert (not (= x71 x72)))
(assert (not (= x71 (_ bv8 8))))
(assert (not (= x71 x81)))
(assert (not (= x71 x82)))
(assert (not (= x72 (_ bv8 8))))
(assert (not (= x72 x81)))
(assert (not (= x72 x82)))
(assert (not (= (_ bv8 8) x81)))
(assert (not (= (_ bv8 8) x82)))
(assert (not (= x81 x82)))
(assert (not (= x63 (_ bv6 8))))
(assert (not (= x63 x65)))
(assert (not (= x63 (_ bv8 8))))
(assert (not (= x63 x74)))
(assert (not (= x63 (_ bv4 8))))
(assert (not (= x63 x83)))
(assert (not (= x63 (_ bv5 8))))
(assert (not (= x63 x85)))
(assert (not (= (_ bv6 8) x65)))
(assert (not (= (_ bv6 8) (_ bv8 8))))
(assert (not (= (_ bv6 8) x74)))
(assert (not (= (_ bv6 8) (_ bv4 8))))
(assert (not (= (_ bv6 8) x83)))
(assert (not (= (_ bv6 8) (_ bv5 8))))
(assert (not (= (_ bv6 8) x85)))
(assert (not (= x65 (_ bv8 8))))
(assert (not (= x65 x74)))
(assert (not (= x65 (_ bv4 8))))
(assert (not (= x65 x83)))
(assert (not (= x65 (_ bv5 8))))
(assert (not (= x65 x85)))
(assert (not (= (_ bv8 8) x74)))
(assert (not (= (_ bv8 8) (_ bv4 8))))
(assert (not (= (_ bv8 8) x83)))
(assert (not (= (_ bv8 8) (_ bv5 8))))
(assert (not (= (_ bv8 8) x85)))
(assert (not (= x74 (_ bv4 8))))
(assert (not (= x74 x83)))
(assert (not (= x74 (_ bv5 8))))
(assert (not (= x74 x85)))
(assert (not (= (_ bv4 8) x83)))
(assert (not (= (_ bv4 8) (_ bv5 8))))
(assert (not (= (_ bv4 8) x85)))
(assert (not (= x83 (_ bv5 8))))
(assert (not (= x83 x85)))
(assert (not (= (_ bv5 8) x85)))
(assert (not (= (_ bv1 8) x67)))
(assert (not (= (_ bv1 8) x68)))
(assert (not (= (_ bv1 8) (_ bv6 8))))
(assert (not (= (_ bv1 8) (_ bv2 8))))
(assert (not (= (_ bv1 8) x78)))
(assert (not (= (_ bv1 8) x86)))
(assert (not (= (_ bv1 8) x87)))
(assert (not (= (_ bv1 8) (_ bv7 8))))
(assert (not (= x67 x68)))
(assert (not (= x67 (_ bv6 8))))
(assert (not (= x67 (_ bv2 8))))
(assert (not (= x67 x78)))
(assert (not (= x67 x86)))
(assert (not (= x67 x87)))
(assert (not (= x67 (_ bv7 8))))
(assert (not (= x68 (_ bv6 8))))
(assert (not (= x68 (_ bv2 8))))
(assert (not (= x68 x78)))
(assert (not (= x68 x86)))
(assert (not (= x68 x87)))
(assert (not (= x68 (_ bv7 8))))
(assert (not (= (_ bv6 8) (_ bv2 8))))
(assert (not (= (_ bv6 8) x78)))
(assert (not (= (_ bv6 8) x86)))
(assert (not (= (_ bv6 8) x87)))
(assert (not (= (_ bv6 8) (_ bv7 8))))
(assert (not (= (_ bv2 8) x78)))
(assert (not (= (_ bv2 8) x86)))
(assert (not (= (_ bv2 8) x87)))
(assert (not (= (_ bv2 8) (_ bv7 8))))
(assert (not (= x78 x86)))
(assert (not (= x78 x87)))
(assert (not (= x78 (_ bv7 8))))
(assert (not (= x86 x87)))
(assert (not (= x86 (_ bv7 8))))
(assert (not (= x87 (_ bv7 8))))
(check-sat)
(exit)
